NAME: tsp50_24
COMMENT: 50-tsp problem (Padberg/Rinaldi)
TYPE: TSP
DIMENSION: 50
EDGE_WEIGHT_TYPE : EUC_2D
NODE_COORD_SECTION
1 2 23
2 0 23
3 33 8
4 10 21
5 4 33
6 37 7
7 2 18
8 15 35
9 39 1
10 7 26
11 39 9
12 8 9
13 15 12
14 33 8
15 31 21
16 19 24
17 28 35
18 20 3
19 17 18
20 9 29
21 23 25
22 17 33
23 33 12
24 6 24
25 38 34
26 27 38
27 7 18
28 13 22
29 33 35
30 35 37
31 6 21
32 9 7
33 29 24
34 15 19
35 14 40
36 16 34
37 29 28
38 17 39
39 1 18
40 29 16
41 3 15
42 1 4
43 34 38
44 6 40
45 5 38
46 39 3
47 7 31
48 39 3
49 11 24
50 19 10
